Minimize
  - 5 y_0 - 20 y_1 - 17 y_2 - 8 y_3 - 16 y_4 - 23 y_5 - 14 y_6 - 20 y_8
   - 19 y_9 + 62 x_0_1 + 21 x_0_3 + 55 x_0_4 + 62 x_0_8 + 56 x_0_9
   + 39 x_1_2 + 12 x_1_5 + 26 x_1_6 + 81 x_1_7 + 18 x_1_8 + 36 x_2_3
   + 35 x_2_6 + 67 x_2_7 + 23 x_2_8 + 68 x_2_9 + 34 x_3_4 + 32 x_3_6
   + 53 x_4_5 + 64 x_4_7 + 53 x_5_4 + 30 x_6_8 + 34 x_6_9 + 75 x_7_9
   + 75 x_7_9 + 75 x_7_9 + 75 x_7_9 + 75 x_7_9 + 75 x_7_9 + 75 x_7_9
   + 75 x_7_9 + 75 x_7_9 + 75 x_7_9 + 75 x_7_9 + 75 x_7_9 + 75 x_7_9
   + 75 x_7_9 + 75 x_7_9 + 75 x_7_9 + 75 x_7_9 + 75 x_7_9 + 75 x_7_9
   + 75 x_7_9 + 75 x_7_9 + 75 x_7_9 + 75 x_7_9 + 75 x_7_9 + 75 x_7_9
   + 75 x_7_9 + 75 x_7_9 + 75 x_7_9 + 75 x_7_9 + 75 x_7_9 + 75 x_7_9
   + 75 x_7_9 + 75 x_7_9 + 75 x_7_9 + 75 x_7_9 + 75 x_7_9 + 75 x_7_9
   + 75 x_7_9 + 75 x_7_9 + 75 x_7_9 + 75 x_7_9 + 75 x_7_9 + 75 x_7_9
   + 75 x_7_9 + 75 x_7_9 + 75 x_7_9 + 75 x_7_9 + 75 x_7_9 + 75 x_7_9
   + 75 x_7_9 + 75 x_7_9 + 75 x_7_9 + 75 x_7_9 + 75 x_7_9 + 75 x_7_9
   + 75 x_7_9 + 75 x_7_9 + 75 x_7_9 + 75 x_7_9 + 75 x_7_9 + 75 x_7_9
   + 75 x_7_9 + 75 x_7_9 + 75 x_7_9 + 75 x_7_9 + 75 x_7_9 + 75 x_7_9
   + 75 x_7_9 + 75 x_7_9 + 75 x_7_9 + 75 x_7_9 + 75 x_7_9 + 75 x_7_9
   + 75 x_7_9 + 75 x_7_9 + 75 x_7_9 + 75 x_7_9 + 75 x_7_9 + 75 x_7_9
   + 75 x_7_9 + 75 x_7_9 + 75 x_7_9 + 75 x_7_9 + 75 x_7_9 + 75 x_7_9
   + 75 x_7_9 + 75 x_7_9 + 75 x_7_9 + 75 x_7_9 + 75 x_7_9 + 75 x_7_9
   + 75 x_7_9 + 75 x_7_9 + 75 x_7_9 + 75 x_7_9 + 75 x_7_9 + 75 x_7_9
   + 75 x_7_9 + 75 x_7_9 + 75 x_7_9 + 75 x_7_9 + 75 x_7_9 + 75 x_7_9
   + 75 x_7_9 + 75 x_7_9 + 75 x_7_9 + 75 x_7_9 + 75 x_7_9 + 75 x_7_9
   + 75 x_7_9 + 75 x_7_9 + 75 x_7_9 + 75 x_7_9 + 75 x_7_9 + 75 x_7_9
   + 75 x_7_9 + 75 x_7_9 + 75 x_7_9 + 75 x_7_9 + 75 x_7_9 + 75 x_7_9
   + 75 x_7_9 + 75 x_7_9 + 75 x_7_9 + 75 x_7_9 + 75 x_7_9 + 75 x_7_9
   + 75 x_7_9 + 75 x_7_9 + 75 x_7_9 + 75 x_7_9 + 75 x_7_9 + 75 x_7_9
   + 75 x_7_9 + 75 x_7_9 + 75 x_7_9 + 75 x_7_9 + 75 x_7_9 + 75 x_7_9
   + 75 x_7_9 + 75 x_7_9 + 75 x_7_9 + 75 x_7_9 + 75 x_7_9 + 75 x_7_9
   + 75 x_7_9 + 75 x_7_9 + 75 x_7_9 + 75 x_7_9 + 75 x_7_9 + 75 x_7_9
   + 75 x_7_9 + 75 x_7_9 + 75 x_7_9 + 75 x_7_9 + 75 x_7_9 + 75 x_7_9
   + 75 x_7_9 + 75 x_7_9 + 75 x_7_9 + 75 x_7_9 + 75 x_7_9 + 75 x_7_9
   + 75 x_7_9 + 75 x_7_9 + 75 x_7_9 + 75 x_7_9 + 75 x_7_9 + 75 x_7_9
   + 75 x_7_9 + 75 x_7_9 + 75 x_7_9 + 75 x_7_9 + 75 x_7_9 + 75 x_7_9
   + 75 x_7_9 + 75 x_7_9 + 75 x_7_9 + 75 x_7_9 + 75 x_7_9 + 75 x_7_9
   + 75 x_7_9 + 75 x_7_9 + 75 x_7_9 + 75 x_7_9 + 75 x_7_9 + 75 x_7_9
   + 75 x_7_9 + 75 x_7_9 + 75 x_7_9 + 75 x_7_9 + 75 x_7_9 + 75 x_7_9
   + 75 x_7_9 + 75 x_7_9 + 75 x_7_9 + 75 x_7_9 + 75 x_7_9 + 75 x_7_9
   + 75 x_7_9 + 75 x_7_9 + 75 x_7_9 + 75 x_7_9 + 75 x_7_9 + 75 x_7_9
   + 75 x_7_9 + 75 x_7_9 + 75 x_7_9 + 75 x_7_9 + 75 x_7_9 + 75 x_7_9
   + 75 x_7_9 + 75 x_7_9 + 75 x_7_9 + 142 Constant
Subject To
 c_0: y_0 = 1
 c_1_0: y_0 >= 1
 c_1_1: y_1 >= 1
 c_1_2: y_2 >= 1
 c_1_3: y_3 >= 1
 c_1_4: y_4 >= 1
 c_1_5: y_5 >= 1
 c_1_6: y_6 >= 1
 c_1_7: y_7 >= 1
 c_1_8: y_8 >= 1
 c_1_9: y_9 >= 1
 c_2_0: - 2 y_0 + x_0_1 + x_0_3 + x_0_4 + x_0_8 + x_0_9 = 0
 c_2_1: - 2 y_1 + x_0_1 + x_1_2 + x_1_5 + x_1_6 + x_1_7 + x_1_8 = 0
 c_2_2: - 2 y_2 + x_1_2 + x_2_3 + x_2_6 + x_2_7 + x_2_8 + x_2_9 = 0
 c_2_3: - 2 y_3 + x_0_3 + x_2_3 + x_3_4 + x_3_6 = 0
 c_2_4: - 2 y_4 + x_0_4 + x_3_4 + x_4_7 + 2 x_5_4 = 0
 c_2_5: - 2 y_5 + x_1_5 + 2 x_5_4 = 0
 c_2_6: - 2 y_6 + x_1_6 + x_2_6 + x_3_6 + x_6_8 + x_6_9 = 0
 c_2_7: - 2 y_7 + x_1_7 + x_2_7 + x_4_7 + 214 x_7_9 = 0
 c_2_8: - 2 y_8 + x_0_8 + x_1_8 + x_2_8 + x_6_8 = 0
 c_2_9: - 2 y_9 + x_0_9 + x_2_9 + x_6_9 + 214 x_7_9 = 0
Bounds
 Constant = 1
Binaries
 y_0 y_1 y_2 y_3 y_4 y_5 y_6 y_7 y_8 y_9 x_0_1 x_0_3 x_0_4 x_0_8 x_0_9
 x_1_2 x_1_5 x_1_6 x_1_7 x_1_8 x_2_3 x_2_6 x_2_7 x_2_8 x_2_9 x_3_4 x_3_6
 x_4_5 x_4_7 x_5_4 x_6_8 x_6_9 x_7_9 x_7_9 x_7_9 x_7_9 x_7_9 x_7_9 x_7_9
 x_7_9 x_7_9 x_7_9 x_7_9 x_7_9 x_7_9 x_7_9 x_7_9 x_7_9 x_7_9 x_7_9 x_7_9
 x_7_9 x_7_9 x_7_9 x_7_9 x_7_9 x_7_9 x_7_9 x_7_9 x_7_9 x_7_9 x_7_9 x_7_9
 x_7_9 x_7_9 x_7_9 x_7_9 x_7_9 x_7_9 x_7_9 x_7_9 x_7_9 x_7_9 x_7_9 x_7_9
 x_7_9 x_7_9 x_7_9 x_7_9 x_7_9 x_7_9 x_7_9 x_7_9 x_7_9 x_7_9 x_7_9 x_7_9
 x_7_9 x_7_9 x_7_9 x_7_9 x_7_9 x_7_9 x_7_9 x_7_9 x_7_9 x_7_9 x_7_9 x_7_9
 x_7_9 x_7_9 x_7_9 x_7_9 x_7_9 x_7_9 x_7_9 x_7_9 x_7_9 x_7_9 x_7_9 x_7_9
 x_7_9 x_7_9 x_7_9 x_7_9 x_7_9 x_7_9 x_7_9 x_7_9 x_7_9 x_7_9 x_7_9 x_7_9
 x_7_9 x_7_9 x_7_9 x_7_9 x_7_9 x_7_9 x_7_9 x_7_9 x_7_9 x_7_9 x_7_9 x_7_9
 x_7_9 x_7_9 x_7_9 x_7_9 x_7_9 x_7_9 x_7_9 x_7_9 x_7_9 x_7_9 x_7_9 x_7_9
 x_7_9 x_7_9 x_7_9 x_7_9 x_7_9 x_7_9 x_7_9 x_7_9 x_7_9 x_7_9 x_7_9 x_7_9
 x_7_9 x_7_9 x_7_9 x_7_9 x_7_9 x_7_9 x_7_9 x_7_9 x_7_9 x_7_9 x_7_9 x_7_9
 x_7_9 x_7_9 x_7_9 x_7_9 x_7_9 x_7_9 x_7_9 x_7_9 x_7_9 x_7_9 x_7_9 x_7_9
 x_7_9 x_7_9 x_7_9 x_7_9 x_7_9 x_7_9 x_7_9 x_7_9 x_7_9 x_7_9 x_7_9 x_7_9
 x_7_9 x_7_9 x_7_9 x_7_9 x_7_9 x_7_9 x_7_9 x_7_9 x_7_9 x_7_9 x_7_9 x_7_9
 x_7_9 x_7_9 x_7_9 x_7_9 x_7_9 x_7_9 x_7_9 x_7_9 x_7_9 x_7_9 x_7_9 x_7_9
 x_7_9 x_7_9 x_7_9 x_7_9 x_7_9 x_7_9 x_7_9 x_7_9 x_7_9 x_7_9 x_7_9 x_7_9
 x_7_9 x_7_9 x_7_9 x_7_9 x_7_9 x_7_9 x_7_9 x_7_9 x_7_9 x_7_9 x_7_9 x_7_9
 x_7_9 x_7_9 x_7_9
End
